c File: instances/40_0.35_1.col
c
c Description: Random graph of size 40 vertices and P(0.35) of edges between any two vertices.
p col 40 780
e 1 3
e 1 6
e 1 7
e 1 9
e 1 14
e 1 15
e 1 17
e 1 19
e 1 21
e 1 25
e 1 27
e 1 28
e 1 30
e 1 31
e 1 32
e 1 34
e 1 36
e 1 39
e 2 3
e 2 5
e 2 6
e 2 9
e 2 10
e 2 13
e 2 14
e 2 18
e 2 19
e 2 20
e 2 22
e 2 24
e 2 30
e 2 32
e 2 35
e 2 36
e 2 37
e 2 40
e 3 7
e 3 8
e 3 9
e 3 11
e 3 14
e 3 18
e 3 24
e 3 26
e 3 28
e 3 30
e 3 31
e 3 35
e 3 37
e 4 6
e 4 7
e 4 11
e 4 13
e 4 16
e 4 19
e 4 25
e 4 26
e 4 29
e 4 33
e 4 34
e 4 36
e 4 38
e 4 40
e 5 6
e 5 7
e 5 17
e 5 20
e 5 21
e 5 24
e 5 25
e 5 27
e 5 28
e 5 30
e 5 35
e 5 37
e 6 11
e 6 13
e 6 14
e 6 15
e 6 16
e 6 17
e 6 18
e 6 19
e 6 20
e 6 21
e 6 23
e 6 28
e 6 30
e 6 33
e 6 35
e 6 37
e 6 38
e 6 40
e 7 11
e 7 15
e 7 22
e 7 23
e 7 25
e 7 27
e 7 31
e 7 34
e 7 35
e 7 37
e 7 38
e 8 15
e 8 17
e 8 19
e 8 21
e 8 27
e 8 28
e 8 30
e 8 31
e 8 37
e 9 10
e 9 13
e 9 20
e 9 23
e 9 24
e 9 29
e 9 30
e 9 31
e 9 32
e 9 34
e 9 38
e 9 39
e 10 11
e 10 12
e 10 13
e 10 14
e 10 15
e 10 16
e 10 18
e 10 19
e 10 24
e 10 27
e 10 30
e 10 34
e 10 38
e 10 39
e 10 40
e 11 14
e 11 16
e 11 21
e 11 24
e 11 28
e 11 31
e 11 36
e 11 38
e 12 16
e 12 19
e 12 21
e 12 22
e 12 24
e 12 34
e 13 14
e 13 17
e 13 19
e 13 21
e 13 22
e 13 31
e 14 17
e 14 18
e 14 19
e 14 20
e 14 21
e 14 23
e 14 24
e 14 28
e 14 31
e 14 34
e 14 37
e 14 40
e 15 17
e 15 19
e 15 20
e 15 30
e 15 32
e 15 33
e 15 34
e 15 35
e 15 38
e 15 40
e 16 18
e 16 21
e 16 26
e 16 27
e 16 32
e 16 33
e 17 21
e 17 22
e 17 25
e 17 30
e 17 31
e 17 34
e 17 36
e 17 40
e 18 21
e 18 23
e 18 24
e 18 26
e 18 28
e 18 29
e 18 32
e 18 36
e 18 38
e 19 20
e 19 21
e 19 22
e 19 23
e 19 25
e 19 26
e 19 30
e 19 32
e 19 33
e 19 34
e 19 35
e 19 36
e 19 37
e 20 21
e 20 22
e 20 25
e 20 28
e 20 30
e 20 34
e 20 36
e 20 40
e 21 24
e 21 27
e 21 28
e 21 30
e 21 31
e 21 36
e 22 24
e 22 27
e 22 28
e 22 30
e 22 31
e 23 26
e 23 27
e 23 28
e 23 29
e 23 32
e 23 33
e 23 35
e 23 40
e 24 28
e 24 30
e 24 32
e 24 33
e 24 37
e 24 38
e 25 28
e 25 33
e 25 35
e 25 36
e 25 37
e 26 28
e 26 30
e 26 33
e 26 34
e 26 35
e 26 39
e 26 40
e 27 28
e 27 34
e 27 36
e 27 40
e 28 33
e 28 34
e 29 33
e 29 34
e 29 35
e 29 37
e 29 39
e 30 32
e 30 35
e 30 37
e 30 39
e 31 35
e 31 36
e 32 34
e 32 38
e 33 34
e 33 38
e 34 35
e 34 39
e 35 36
e 37 39
e 37 40